# Escenario generado automaticamente: adr_bajo

param alpha := 0.5;
param fecha_hoy := 45984;
param s := 100;

set I := P1 P2 P3 P4 P5 P6 P7 P8 P9 P10 P11 P12 P13 P14 P15 P16 P17 P18 P19 P20 P21 P22 P23 P24 P25 P26 P27 P28 P29 P30 P31 P32 P33 P34 P35 P36 P37 P38 P39 P40 P41 P42 P43 P44 P45 P46 P47 P48 P49 P50 P51 P52 P53 P54 P55 P56 P57 P58 P59 P60 P61 P62 P63 P64 P65 P66 P67 P68 P69 P70 P71 P72 P73 P74 P75 P76 P77 P78 P79 P80 P81 P82 P83 P84 P85 P86 P87 P88 P89 P90 P91 P92 P93 P94 P95 P96 P97 P98 P99 P100 P101 P102 P103 P104 P105 P106 P107 P108 P109 P110 P111 P112 P113 P114 P115 P116 P117 P118 P119 P120 P121 P122 P123 P124 P125 P126 P127 P128 P129 P130 P131 P132 P133 P134 P135 P136 P137 P138 P139 P140 P141 P142 P143 P144 P145 P146 P147 P148 P149 P150 P151 P152 P153 P154 P155 P156 P157 P158 P159 P160 P161 P162 P163 P164 P165 P166 P167 P168 P169 P170 P171 P172 P173 P174 P175 P176 P177 P178 P179 P180 P181 P182 P183 P184 P185 P186 P187 P188 P189 P190 P191 P192 P193 P194 P195 P196 P197 P198 P199 P200;
set C := C1 C2 C3 C4 C5 C6 C7 C8 C9 C10 C11 C12 C13 C14 C15;
set J := T1 T2 T3 T4 T5 T6 T7 T8 T9 T10 T11 T12 T13 T14 T15;

param dist_c :=
  'C1' 53
  'C2' 37
  'C3' 73
  'C4' 40
  'C5' 54
  'C6' 69
  'C7' 44
  'C8' 93
  'C9' 31
  'C10' 48
  'C11' 97
  'C12' 18
  'C13' 29
  'C14' 17
  'C15' 9
;

param F :=
  'T1' 350
  'T2' 550
  'T3' 700
  'T4' 350
  'T5' 350
  'T6' 350
  'T7' 350
  'T8' 550
  'T9' 350
  'T10' 700
  'T11' 350
  'T12' 550
  'T13' 700
  'T14' 550
  'T15' 350
;
param ADRmax :=
  'T1' 0
  'T2' 0
  'T3' 5
  'T4' 0
  'T5' 0
  'T6' 0
  'T7' 0
  'T8' 0
  'T9' 0
  'T10' 5
  'T11' 0
  'T12' 0
  'T13' 5
  'T14' 0
  'T15' 0
;
param W :=
  'T1' 1000
  'T2' 2500
  'T3' 3500
  'T4' 1000
  'T5' 1000
  'T6' 1000
  'T7' 1000
  'T8' 2500
  'T9' 1000
  'T10' 3500
  'T11' 1000
  'T12' 2500
  'T13' 3500
  'T14' 2500
  'T15' 1000
;
param V :=
  'T1' 10
  'T2' 18
  'T3' 25
  'T4' 10
  'T5' 10
  'T6' 10
  'T7' 10
  'T8' 18
  'T9' 10
  'T10' 25
  'T11' 10
  'T12' 18
  'T13' 25
  'T14' 18
  'T15' 10
;
param Pmax :=
  'T1' 9
  'T2' 10
  'T3' 10
  'T4' 10
  'T5' 5
  'T6' 7
  'T7' 7
  'T8' 7
  'T9' 5
  'T10' 5
  'T11' 7
  'T12' 9
  'T13' 10
  'T14' 10
  'T15' 9
;

param pes :=
  'P1' 229
  'P2' 209
  'P3' 266
  'P4' 159
  'P5' 184
  'P6' 175
  'P7' 287
  'P8' 122
  'P9' 294
  'P10' 234
  'P11' 283
  'P12' 260
  'P13' 136
  'P14' 216
  'P15' 144
  'P16' 246
  'P17' 293
  'P18' 130
  'P19' 284
  'P20' 124
  'P21' 298
  'P22' 163
  'P23' 229
  'P24' 278
  'P25' 260
  'P26' 174
  'P27' 135
  'P28' 155
  'P29' 198
  'P30' 215
  'P31' 153
  'P32' 126
  'P33' 240
  'P34' 142
  'P35' 158
  'P36' 117
  'P37' 120
  'P38' 138
  'P39' 147
  'P40' 276
  'P41' 247
  'P42' 293
  'P43' 157
  'P44' 189
  'P45' 248
  'P46' 113
  'P47' 230
  'P48' 155
  'P49' 230
  'P50' 258
  'P51' 204
  'P52' 254
  'P53' 209
  'P54' 228
  'P55' 214
  'P56' 163
  'P57' 150
  'P58' 136
  'P59' 126
  'P60' 157
  'P61' 185
  'P62' 219
  'P63' 151
  'P64' 228
  'P65' 257
  'P66' 234
  'P67' 238
  'P68' 237
  'P69' 214
  'P70' 126
  'P71' 177
  'P72' 278
  'P73' 201
  'P74' 272
  'P75' 173
  'P76' 227
  'P77' 270
  'P78' 281
  'P79' 170
  'P80' 142
  'P81' 210
  'P82' 212
  'P83' 192
  'P84' 135
  'P85' 273
  'P86' 215
  'P87' 296
  'P88' 124
  'P89' 235
  'P90' 267
  'P91' 253
  'P92' 266
  'P93' 246
  'P94' 136
  'P95' 194
  'P96' 140
  'P97' 174
  'P98' 278
  'P99' 164
  'P100' 202
  'P101' 136
  'P102' 237
  'P103' 132
  'P104' 249
  'P105' 193
  'P106' 170
  'P107' 215
  'P108' 216
  'P109' 254
  'P110' 293
  'P111' 178
  'P112' 148
  'P113' 179
  'P114' 166
  'P115' 142
  'P116' 238
  'P117' 161
  'P118' 127
  'P119' 198
  'P120' 298
  'P121' 278
  'P122' 239
  'P123' 277
  'P124' 216
  'P125' 273
  'P126' 277
  'P127' 163
  'P128' 113
  'P129' 252
  'P130' 202
  'P131' 173
  'P132' 225
  'P133' 126
  'P134' 137
  'P135' 182
  'P136' 227
  'P137' 139
  'P138' 254
  'P139' 265
  'P140' 154
  'P141' 270
  'P142' 150
  'P143' 196
  'P144' 157
  'P145' 257
  'P146' 102
  'P147' 128
  'P148' 164
  'P149' 138
  'P150' 176
  'P151' 234
  'P152' 216
  'P153' 137
  'P154' 152
  'P155' 108
  'P156' 174
  'P157' 106
  'P158' 126
  'P159' 104
  'P160' 231
  'P161' 240
  'P162' 233
  'P163' 198
  'P164' 220
  'P165' 185
  'P166' 143
  'P167' 189
  'P168' 130
  'P169' 119
  'P170' 154
  'P171' 225
  'P172' 212
  'P173' 171
  'P174' 240
  'P175' 263
  'P176' 125
  'P177' 189
  'P178' 249
  'P179' 290
  'P180' 188
  'P181' 246
  'P182' 177
  'P183' 290
  'P184' 107
  'P185' 213
  'P186' 157
  'P187' 297
  'P188' 183
  'P189' 147
  'P190' 184
  'P191' 122
  'P192' 224
  'P193' 227
  'P194' 128
  'P195' 165
  'P196' 265
  'P197' 238
  'P198' 112
  'P199' 168
  'P200' 248
;
param vol :=
  'P1' 1
  'P2' 2
  'P3' 2
  'P4' 3
  'P5' 1
  'P6' 1
  'P7' 1
  'P8' 2
  'P9' 2
  'P10' 3
  'P11' 2
  'P12' 2
  'P13' 1
  'P14' 3
  'P15' 1
  'P16' 3
  'P17' 1
  'P18' 1
  'P19' 3
  'P20' 3
  'P21' 3
  'P22' 3
  'P23' 2
  'P24' 2
  'P25' 1
  'P26' 1
  'P27' 1
  'P28' 1
  'P29' 2
  'P30' 2
  'P31' 2
  'P32' 1
  'P33' 1
  'P34' 1
  'P35' 3
  'P36' 3
  'P37' 2
  'P38' 3
  'P39' 1
  'P40' 1
  'P41' 2
  'P42' 1
  'P43' 2
  'P44' 3
  'P45' 1
  'P46' 1
  'P47' 2
  'P48' 2
  'P49' 2
  'P50' 3
  'P51' 1
  'P52' 2
  'P53' 2
  'P54' 1
  'P55' 2
  'P56' 1
  'P57' 2
  'P58' 1
  'P59' 3
  'P60' 1
  'P61' 1
  'P62' 3
  'P63' 1
  'P64' 1
  'P65' 2
  'P66' 2
  'P67' 3
  'P68' 2
  'P69' 2
  'P70' 2
  'P71' 2
  'P72' 3
  'P73' 3
  'P74' 3
  'P75' 3
  'P76' 3
  'P77' 2
  'P78' 3
  'P79' 1
  'P80' 2
  'P81' 1
  'P82' 2
  'P83' 1
  'P84' 1
  'P85' 3
  'P86' 1
  'P87' 2
  'P88' 2
  'P89' 1
  'P90' 3
  'P91' 3
  'P92' 2
  'P93' 1
  'P94' 2
  'P95' 3
  'P96' 2
  'P97' 3
  'P98' 3
  'P99' 3
  'P100' 2
  'P101' 3
  'P102' 1
  'P103' 2
  'P104' 2
  'P105' 1
  'P106' 2
  'P107' 3
  'P108' 3
  'P109' 1
  'P110' 1
  'P111' 3
  'P112' 2
  'P113' 2
  'P114' 1
  'P115' 1
  'P116' 1
  'P117' 3
  'P118' 3
  'P119' 1
  'P120' 3
  'P121' 2
  'P122' 3
  'P123' 1
  'P124' 3
  'P125' 2
  'P126' 3
  'P127' 1
  'P128' 1
  'P129' 3
  'P130' 1
  'P131' 2
  'P132' 1
  'P133' 2
  'P134' 3
  'P135' 2
  'P136' 1
  'P137' 1
  'P138' 3
  'P139' 1
  'P140' 3
  'P141' 3
  'P142' 2
  'P143' 1
  'P144' 2
  'P145' 3
  'P146' 1
  'P147' 3
  'P148' 2
  'P149' 1
  'P150' 3
  'P151' 1
  'P152' 3
  'P153' 1
  'P154' 3
  'P155' 1
  'P156' 3
  'P157' 2
  'P158' 3
  'P159' 3
  'P160' 1
  'P161' 2
  'P162' 3
  'P163' 1
  'P164' 2
  'P165' 2
  'P166' 1
  'P167' 3
  'P168' 2
  'P169' 3
  'P170' 2
  'P171' 2
  'P172' 2
  'P173' 1
  'P174' 2
  'P175' 3
  'P176' 3
  'P177' 3
  'P178' 3
  'P179' 2
  'P180' 3
  'P181' 1
  'P182' 1
  'P183' 2
  'P184' 2
  'P185' 2
  'P186' 3
  'P187' 3
  'P188' 1
  'P189' 2
  'P190' 3
  'P191' 2
  'P192' 3
  'P193' 3
  'P194' 3
  'P195' 3
  'P196' 1
  'P197' 2
  'P198' 3
  'P199' 2
  'P200' 1
;
param adr :=
  'P1' 0
  'P2' 0
  'P3' 0
  'P4' 0
  'P5' 0
  'P6' 0
  'P7' 0
  'P8' 0
  'P9' 1
  'P10' 1
  'P11' 0
  'P12' 1
  'P13' 1
  'P14' 1
  'P15' 0
  'P16' 0
  'P17' 0
  'P18' 0
  'P19' 0
  'P20' 0
  'P21' 0
  'P22' 0
  'P23' 0
  'P24' 0
  'P25' 0
  'P26' 0
  'P27' 0
  'P28' 0
  'P29' 0
  'P30' 0
  'P31' 0
  'P32' 0
  'P33' 0
  'P34' 0
  'P35' 0
  'P36' 1
  'P37' 0
  'P38' 0
  'P39' 0
  'P40' 0
  'P41' 1
  'P42' 0
  'P43' 0
  'P44' 0
  'P45' 1
  'P46' 1
  'P47' 0
  'P48' 0
  'P49' 0
  'P50' 0
  'P51' 0
  'P52' 0
  'P53' 0
  'P54' 0
  'P55' 0
  'P56' 1
  'P57' 0
  'P58' 0
  'P59' 0
  'P60' 0
  'P61' 1
  'P62' 0
  'P63' 0
  'P64' 1
  'P65' 0
  'P66' 0
  'P67' 0
  'P68' 1
  'P69' 0
  'P70' 1
  'P71' 0
  'P72' 1
  'P73' 0
  'P74' 0
  'P75' 0
  'P76' 0
  'P77' 0
  'P78' 0
  'P79' 0
  'P80' 0
  'P81' 0
  'P82' 0
  'P83' 0
  'P84' 0
  'P85' 0
  'P86' 0
  'P87' 1
  'P88' 1
  'P89' 0
  'P90' 1
  'P91' 1
  'P92' 0
  'P93' 0
  'P94' 0
  'P95' 0
  'P96' 1
  'P97' 0
  'P98' 1
  'P99' 1
  'P100' 0
  'P101' 0
  'P102' 0
  'P103' 0
  'P104' 0
  'P105' 0
  'P106' 0
  'P107' 1
  'P108' 1
  'P109' 0
  'P110' 0
  'P111' 0
  'P112' 0
  'P113' 1
  'P114' 0
  'P115' 0
  'P116' 0
  'P117' 1
  'P118' 1
  'P119' 0
  'P120' 1
  'P121' 0
  'P122' 0
  'P123' 0
  'P124' 1
  'P125' 1
  'P126' 1
  'P127' 1
  'P128' 1
  'P129' 0
  'P130' 0
  'P131' 0
  'P132' 0
  'P133' 1
  'P134' 0
  'P135' 1
  'P136' 0
  'P137' 0
  'P138' 0
  'P139' 0
  'P140' 0
  'P141' 1
  'P142' 1
  'P143' 0
  'P144' 0
  'P145' 0
  'P146' 0
  'P147' 0
  'P148' 0
  'P149' 1
  'P150' 0
  'P151' 0
  'P152' 1
  'P153' 0
  'P154' 0
  'P155' 0
  'P156' 1
  'P157' 0
  'P158' 0
  'P159' 0
  'P160' 0
  'P161' 0
  'P162' 0
  'P163' 1
  'P164' 0
  'P165' 0
  'P166' 1
  'P167' 1
  'P168' 0
  'P169' 0
  'P170' 0
  'P171' 0
  'P172' 0
  'P173' 0
  'P174' 1
  'P175' 0
  'P176' 0
  'P177' 0
  'P178' 0
  'P179' 0
  'P180' 1
  'P181' 1
  'P182' 0
  'P183' 0
  'P184' 1
  'P185' 0
  'P186' 0
  'P187' 0
  'P188' 1
  'P189' 0
  'P190' 1
  'P191' 1
  'P192' 1
  'P193' 0
  'P194' 0
  'P195' 1
  'P196' 0
  'P197' 0
  'P198' 0
  'P199' 0
  'P200' 0
;
param t :=
  'P1' 350
  'P2' 350
  'P3' 350
  'P4' 350
  'P5' 350
  'P6' 350
  'P7' 350
  'P8' 350
  'P9' 350
  'P10' 350
  'P11' 350
  'P12' 350
  'P13' 350
  'P14' 350
  'P15' 350
  'P16' 350
  'P17' 350
  'P18' 350
  'P19' 350
  'P20' 350
  'P21' 350
  'P22' 350
  'P23' 350
  'P24' 350
  'P25' 350
  'P26' 350
  'P27' 350
  'P28' 350
  'P29' 350
  'P30' 350
  'P31' 350
  'P32' 350
  'P33' 350
  'P34' 350
  'P35' 350
  'P36' 350
  'P37' 350
  'P38' 350
  'P39' 350
  'P40' 350
  'P41' 350
  'P42' 350
  'P43' 350
  'P44' 350
  'P45' 350
  'P46' 350
  'P47' 350
  'P48' 350
  'P49' 350
  'P50' 350
  'P51' 350
  'P52' 350
  'P53' 350
  'P54' 350
  'P55' 350
  'P56' 350
  'P57' 350
  'P58' 350
  'P59' 350
  'P60' 350
  'P61' 350
  'P62' 350
  'P63' 350
  'P64' 350
  'P65' 350
  'P66' 350
  'P67' 350
  'P68' 350
  'P69' 350
  'P70' 350
  'P71' 350
  'P72' 350
  'P73' 350
  'P74' 350
  'P75' 350
  'P76' 350
  'P77' 350
  'P78' 350
  'P79' 350
  'P80' 350
  'P81' 350
  'P82' 350
  'P83' 350
  'P84' 350
  'P85' 350
  'P86' 350
  'P87' 350
  'P88' 350
  'P89' 350
  'P90' 350
  'P91' 350
  'P92' 350
  'P93' 350
  'P94' 350
  'P95' 350
  'P96' 350
  'P97' 350
  'P98' 350
  'P99' 350
  'P100' 350
  'P101' 350
  'P102' 350
  'P103' 350
  'P104' 350
  'P105' 350
  'P106' 350
  'P107' 350
  'P108' 350
  'P109' 350
  'P110' 350
  'P111' 350
  'P112' 350
  'P113' 350
  'P114' 350
  'P115' 350
  'P116' 350
  'P117' 350
  'P118' 350
  'P119' 350
  'P120' 350
  'P121' 350
  'P122' 350
  'P123' 350
  'P124' 350
  'P125' 350
  'P126' 350
  'P127' 350
  'P128' 350
  'P129' 350
  'P130' 350
  'P131' 350
  'P132' 350
  'P133' 350
  'P134' 350
  'P135' 350
  'P136' 350
  'P137' 350
  'P138' 350
  'P139' 350
  'P140' 350
  'P141' 350
  'P142' 350
  'P143' 350
  'P144' 350
  'P145' 350
  'P146' 350
  'P147' 350
  'P148' 350
  'P149' 350
  'P150' 350
  'P151' 350
  'P152' 350
  'P153' 350
  'P154' 350
  'P155' 350
  'P156' 350
  'P157' 350
  'P158' 350
  'P159' 350
  'P160' 350
  'P161' 350
  'P162' 350
  'P163' 350
  'P164' 350
  'P165' 350
  'P166' 350
  'P167' 350
  'P168' 350
  'P169' 350
  'P170' 350
  'P171' 350
  'P172' 350
  'P173' 350
  'P174' 350
  'P175' 350
  'P176' 350
  'P177' 350
  'P178' 350
  'P179' 350
  'P180' 350
  'P181' 350
  'P182' 350
  'P183' 350
  'P184' 350
  'P185' 350
  'P186' 350
  'P187' 350
  'P188' 350
  'P189' 350
  'P190' 350
  'P191' 350
  'P192' 350
  'P193' 350
  'P194' 350
  'P195' 350
  'P196' 350
  'P197' 350
  'P198' 350
  'P199' 350
  'P200' 350
;
param fecha :=
  'P1' 45984
  'P2' 45985
  'P3' 45984
  'P4' 45984
  'P5' 45984
  'P6' 45984
  'P7' 45984
  'P8' 45984
  'P9' 45985
  'P10' 45984
  'P11' 45984
  'P12' 45985
  'P13' 45984
  'P14' 45984
  'P15' 45984
  'P16' 45984
  'P17' 45984
  'P18' 45984
  'P19' 45984
  'P20' 45985
  'P21' 45985
  'P22' 45985
  'P23' 45984
  'P24' 45985
  'P25' 45984
  'P26' 45984
  'P27' 45984
  'P28' 45984
  'P29' 45984
  'P30' 45984
  'P31' 45985
  'P32' 45984
  'P33' 45985
  'P34' 45984
  'P35' 45984
  'P36' 45985
  'P37' 45985
  'P38' 45984
  'P39' 45984
  'P40' 45985
  'P41' 45984
  'P42' 45984
  'P43' 45984
  'P44' 45985
  'P45' 45985
  'P46' 45985
  'P47' 45984
  'P48' 45984
  'P49' 45984
  'P50' 45985
  'P51' 45984
  'P52' 45985
  'P53' 45984
  'P54' 45984
  'P55' 45984
  'P56' 45985
  'P57' 45985
  'P58' 45984
  'P59' 45984
  'P60' 45985
  'P61' 45984
  'P62' 45985
  'P63' 45984
  'P64' 45984
  'P65' 45985
  'P66' 45984
  'P67' 45985
  'P68' 45984
  'P69' 45984
  'P70' 45984
  'P71' 45984
  'P72' 45984
  'P73' 45985
  'P74' 45984
  'P75' 45984
  'P76' 45984
  'P77' 45984
  'P78' 45984
  'P79' 45984
  'P80' 45984
  'P81' 45984
  'P82' 45984
  'P83' 45985
  'P84' 45984
  'P85' 45985
  'P86' 45984
  'P87' 45984
  'P88' 45985
  'P89' 45984
  'P90' 45984
  'P91' 45984
  'P92' 45985
  'P93' 45984
  'P94' 45984
  'P95' 45985
  'P96' 45984
  'P97' 45984
  'P98' 45984
  'P99' 45985
  'P100' 45984
  'P101' 45984
  'P102' 45984
  'P103' 45984
  'P104' 45985
  'P105' 45984
  'P106' 45984
  'P107' 45984
  'P108' 45984
  'P109' 45984
  'P110' 45985
  'P111' 45984
  'P112' 45984
  'P113' 45984
  'P114' 45984
  'P115' 45985
  'P116' 45985
  'P117' 45984
  'P118' 45985
  'P119' 45984
  'P120' 45984
  'P121' 45985
  'P122' 45984
  'P123' 45984
  'P124' 45984
  'P125' 45985
  'P126' 45984
  'P127' 45985
  'P128' 45984
  'P129' 45984
  'P130' 45984
  'P131' 45985
  'P132' 45984
  'P133' 45984
  'P134' 45984
  'P135' 45984
  'P136' 45984
  'P137' 45984
  'P138' 45985
  'P139' 45984
  'P140' 45984
  'P141' 45984
  'P142' 45984
  'P143' 45984
  'P144' 45985
  'P145' 45984
  'P146' 45985
  'P147' 45984
  'P148' 45985
  'P149' 45984
  'P150' 45985
  'P151' 45985
  'P152' 45984
  'P153' 45985
  'P154' 45984
  'P155' 45985
  'P156' 45984
  'P157' 45984
  'P158' 45984
  'P159' 45984
  'P160' 45984
  'P161' 45985
  'P162' 45984
  'P163' 45985
  'P164' 45985
  'P165' 45984
  'P166' 45984
  'P167' 45984
  'P168' 45985
  'P169' 45985
  'P170' 45984
  'P171' 45984
  'P172' 45984
  'P173' 45984
  'P174' 45985
  'P175' 45984
  'P176' 45984
  'P177' 45984
  'P178' 45985
  'P179' 45984
  'P180' 45984
  'P181' 45984
  'P182' 45984
  'P183' 45984
  'P184' 45985
  'P185' 45984
  'P186' 45984
  'P187' 45984
  'P188' 45984
  'P189' 45984
  'P190' 45985
  'P191' 45985
  'P192' 45984
  'P193' 45984
  'P194' 45984
  'P195' 45984
  'P196' 45984
  'P197' 45984
  'P198' 45984
  'P199' 45984
  'P200' 45984
;
param cli :=
  'P1' 'C7'
  'P2' 'C9'
  'P3' 'C10'
  'P4' 'C9'
  'P5' 'C11'
  'P6' 'C9'
  'P7' 'C8'
  'P8' 'C5'
  'P9' 'C15'
  'P10' 'C4'
  'P11' 'C3'
  'P12' 'C1'
  'P13' 'C11'
  'P14' 'C9'
  'P15' 'C4'
  'P16' 'C3'
  'P17' 'C6'
  'P18' 'C5'
  'P19' 'C3'
  'P20' 'C11'
  'P21' 'C8'
  'P22' 'C5'
  'P23' 'C10'
  'P24' 'C12'
  'P25' 'C14'
  'P26' 'C5'
  'P27' 'C15'
  'P28' 'C13'
  'P29' 'C14'
  'P30' 'C12'
  'P31' 'C9'
  'P32' 'C4'
  'P33' 'C2'
  'P34' 'C10'
  'P35' 'C3'
  'P36' 'C3'
  'P37' 'C5'
  'P38' 'C13'
  'P39' 'C1'
  'P40' 'C1'
  'P41' 'C7'
  'P42' 'C14'
  'P43' 'C14'
  'P44' 'C13'
  'P45' 'C9'
  'P46' 'C5'
  'P47' 'C4'
  'P48' 'C4'
  'P49' 'C5'
  'P50' 'C11'
  'P51' 'C2'
  'P52' 'C1'
  'P53' 'C3'
  'P54' 'C10'
  'P55' 'C15'
  'P56' 'C3'
  'P57' 'C1'
  'P58' 'C6'
  'P59' 'C12'
  'P60' 'C1'
  'P61' 'C13'
  'P62' 'C11'
  'P63' 'C7'
  'P64' 'C7'
  'P65' 'C1'
  'P66' 'C3'
  'P67' 'C13'
  'P68' 'C12'
  'P69' 'C8'
  'P70' 'C12'
  'P71' 'C15'
  'P72' 'C14'
  'P73' 'C11'
  'P74' 'C14'
  'P75' 'C15'
  'P76' 'C5'
  'P77' 'C9'
  'P78' 'C10'
  'P79' 'C12'
  'P80' 'C6'
  'P81' 'C3'
  'P82' 'C9'
  'P83' 'C13'
  'P84' 'C15'
  'P85' 'C1'
  'P86' 'C1'
  'P87' 'C15'
  'P88' 'C9'
  'P89' 'C1'
  'P90' 'C3'
  'P91' 'C3'
  'P92' 'C13'
  'P93' 'C2'
  'P94' 'C2'
  'P95' 'C6'
  'P96' 'C5'
  'P97' 'C1'
  'P98' 'C2'
  'P99' 'C7'
  'P100' 'C9'
  'P101' 'C4'
  'P102' 'C14'
  'P103' 'C13'
  'P104' 'C11'
  'P105' 'C11'
  'P106' 'C4'
  'P107' 'C2'
  'P108' 'C1'
  'P109' 'C1'
  'P110' 'C3'
  'P111' 'C11'
  'P112' 'C9'
  'P113' 'C5'
  'P114' 'C13'
  'P115' 'C3'
  'P116' 'C6'
  'P117' 'C13'
  'P118' 'C8'
  'P119' 'C9'
  'P120' 'C13'
  'P121' 'C12'
  'P122' 'C13'
  'P123' 'C11'
  'P124' 'C4'
  'P125' 'C8'
  'P126' 'C15'
  'P127' 'C5'
  'P128' 'C5'
  'P129' 'C6'
  'P130' 'C9'
  'P131' 'C4'
  'P132' 'C13'
  'P133' 'C13'
  'P134' 'C14'
  'P135' 'C13'
  'P136' 'C8'
  'P137' 'C6'
  'P138' 'C11'
  'P139' 'C1'
  'P140' 'C1'
  'P141' 'C12'
  'P142' 'C1'
  'P143' 'C4'
  'P144' 'C7'
  'P145' 'C8'
  'P146' 'C15'
  'P147' 'C14'
  'P148' 'C8'
  'P149' 'C6'
  'P150' 'C13'
  'P151' 'C10'
  'P152' 'C11'
  'P153' 'C15'
  'P154' 'C12'
  'P155' 'C15'
  'P156' 'C4'
  'P157' 'C12'
  'P158' 'C14'
  'P159' 'C3'
  'P160' 'C2'
  'P161' 'C12'
  'P162' 'C9'
  'P163' 'C3'
  'P164' 'C13'
  'P165' 'C13'
  'P166' 'C1'
  'P167' 'C8'
  'P168' 'C9'
  'P169' 'C8'
  'P170' 'C12'
  'P171' 'C10'
  'P172' 'C8'
  'P173' 'C14'
  'P174' 'C13'
  'P175' 'C1'
  'P176' 'C5'
  'P177' 'C2'
  'P178' 'C8'
  'P179' 'C9'
  'P180' 'C10'
  'P181' 'C13'
  'P182' 'C4'
  'P183' 'C6'
  'P184' 'C3'
  'P185' 'C4'
  'P186' 'C13'
  'P187' 'C6'
  'P188' 'C7'
  'P189' 'C8'
  'P190' 'C8'
  'P191' 'C14'
  'P192' 'C1'
  'P193' 'C9'
  'P194' 'C1'
  'P195' 'C9'
  'P196' 'C9'
  'P197' 'C7'
  'P198' 'C7'
  'P199' 'C11'
  'P200' 'C4'
;
